
echo
start isoprene

memory stack 2000 mb heap 150 mb global 1500 mb

geometry units angstrom
 C         -1.591896   -0.911257    0.000081
 C         -0.517068   -0.099181   -0.000126
 C         -0.660165    1.402389   -0.000021
 C          0.833506   -0.679211   -0.000131
 C          1.988918    0.004978    0.000059
 H         -0.176992    1.848062    0.886119
 H         -0.175596    1.848481   -0.885167
 H         -1.717809    1.702223   -0.000811
 H         -2.609706   -0.514187    0.000126
 H         -1.480678   -1.998882    0.000256
 H          0.870443   -1.774712   -0.000178
 H          2.949738   -0.514407    0.000166
 H          2.020831    1.097118    0.000316
end


basis
  * library cc-pVDZ
end

dft
 xc b3lyp
end

task dft optimize

task dft frequencies

