&global
  project oxole
  print_level medium
  run_type energy
&end global

&force_eval
  method quickstep
  &dft
    basis_set_file_name BASIS_MOLOPT
    potential_file_name GTH_POTENTIALS

    &mgrid
      cutoff 450
      rel_cutoff 50
      ngrids 5
    &end mgrid

    &poisson
      periodic none
      poisson_solver wavelet
    &end poisson

    &qs
      method gpw
      eps_default 1.0e-14
      extrapolation aspc
      extrapolation_order 5
    &end qs

    &scf
      scf_guess atomic
      eps_scf 1.0e-7
      max_scf 20
      max_diis 20

      &outer_scf
        max_scf 20
        eps_scf 1.0e-7
      &end outer_scf

      &ot
        preconditioner full_all
        energy_gap 0.001
        algorithm irac
        minimizer diis
      &end ot
    &end scf

    &xc
      &xc_functional tpss
      &end xc_functional

      &vdw_potential
        dispersion_functional pair_potential
        &pair_potential
          type dftd3(bj)
          parameter_file_name dftd3.dat
          d3bj_scaling 1.000 0.4535 1.9435 4.4752
        &end pair_potential
      &end vdw_potential
    &end xc
  &end dft

  &subsys
    &cell
      abc [angstrom] 10.0 10.0 10.0
      periodic none
    &end cell

    &coord
      C         -3.67825        0.97736        0.00000
      C         -3.22013       -0.31960        0.00000
      C         -1.80654       -0.23791        0.00000
      C         -1.50087        1.10320        0.00000
      O         -2.63627        1.84858       -0.00000
      H         -4.66189        1.42588        0.00000
      H         -3.83074       -1.21135        0.00000
      H         -1.09726       -1.05338        0.00000
      H         -0.57545        1.66204       -0.00000
    &end coord

    &topology
      &center_coordinates
      &end center_coordinates
    &end topology

    &kind H
      basis_set tzvp-molopt-gth
      potential gth-pbe
    &end kind
    &kind C
      basis_set tzvp-molopt-gth
      potential gth-pbe
    &end kind
    &kind O
      basis_set tzvp-molopt-gth
      potential gth-pbe
    &end kind
  &end subsys
&end force_eval
